solution status: optimal solution found
objective value:                     139093.792198937
d11(0,0)                                            1 	(obj:0)
d11(1,1)                                            1 	(obj:0)
d11(2,4)                                            1 	(obj:0)
d11(2,7)                                            1 	(obj:0)
d11(2,8)                                            1 	(obj:0)
d11(2,10)                                           1 	(obj:0)
d11(3,13)                                           1 	(obj:0)
d11(3,14)                                           1 	(obj:0)
d11(3,16)                                           1 	(obj:0)
d11(3,17)                                           1 	(obj:0)
d11(3,19)                                           1 	(obj:0)
d11(3,20)                                           1 	(obj:0)
d11(3,22)                                           1 	(obj:0)
d11(3,23)                                           1 	(obj:0)
d11(3,25)                                           1 	(obj:0)
d11(3,26)                                           1 	(obj:0)
d11(3,28)                                           1 	(obj:0)
d11(3,29)                                           1 	(obj:0)
d11(3,31)                                           1 	(obj:0)
d11(3,32)                                           1 	(obj:0)
d11(3,34)                                           1 	(obj:0)
d11(3,35)                                           1 	(obj:0)
d11(3,37)                                           1 	(obj:0)
d11(3,38)                                           1 	(obj:0)
d11(4,40)                                           1 	(obj:0)
d11(4,41)                                           1 	(obj:0)
d11(4,43)                                           1 	(obj:0)
d11(4,44)                                           1 	(obj:0)
d11(4,46)                                           1 	(obj:0)
d11(4,47)                                           1 	(obj:0)
d11(4,49)                                           1 	(obj:0)
d11(4,50)                                           1 	(obj:0)
d11(4,52)                                           1 	(obj:0)
d11(4,53)                                           1 	(obj:0)
d11(4,55)                                           1 	(obj:0)
d11(4,56)                                           1 	(obj:0)
d11(4,58)                                           1 	(obj:0)
d11(4,59)                                           1 	(obj:0)
d11(4,61)                                           1 	(obj:0)
d11(4,62)                                           1 	(obj:0)
d11(4,64)                                           1 	(obj:0)
d11(4,65)                                           1 	(obj:0)
d11(4,67)                                           1 	(obj:0)
d11(4,68)                                           1 	(obj:0)
d11(4,70)                                           1 	(obj:0)
d11(4,71)                                           1 	(obj:0)
d11(4,73)                                           1 	(obj:0)
d11(4,74)                                           1 	(obj:0)
d11(4,76)                                           1 	(obj:0)
d11(4,77)                                           1 	(obj:0)
d11(4,79)                                           1 	(obj:0)
d11(4,80)                                           1 	(obj:0)
d11(4,82)                                           1 	(obj:0)
d11(4,83)                                           1 	(obj:0)
d11(4,85)                                           1 	(obj:0)
d11(4,86)                                           1 	(obj:0)
d11(4,88)                                           1 	(obj:0)
d11(4,89)                                           1 	(obj:0)
d11(4,91)                                           1 	(obj:0)
d11(4,92)                                           1 	(obj:0)
d11(4,94)                                           1 	(obj:0)
d11(4,95)                                           1 	(obj:0)
d11(4,97)                                           1 	(obj:0)
d11(4,98)                                           1 	(obj:0)
d11(4,100)                                          1 	(obj:0)
d11(4,101)                                          1 	(obj:0)
d11(4,103)                                          1 	(obj:0)
d11(4,104)                                          1 	(obj:0)
d11(4,106)                                          1 	(obj:0)
d11(4,107)                                          1 	(obj:0)
d11(4,109)                                          1 	(obj:0)
d11(4,110)                                          1 	(obj:0)
d11(4,112)                                          1 	(obj:0)
d11(4,113)                                          1 	(obj:0)
d11(4,115)                                          1 	(obj:0)
d11(4,116)                                          1 	(obj:0)
d11(4,118)                                          1 	(obj:0)
d11(4,119)                                          1 	(obj:0)
d12(1,2)                                            1 	(obj:0)
d12(1,3)                                            1 	(obj:0)
d12(2,6)                                            1 	(obj:0)
d12(2,9)                                            1 	(obj:0)
d12(2,12)                                           1 	(obj:0)
d12(3,15)                                           1 	(obj:0)
d12(3,18)                                           1 	(obj:0)
d12(3,21)                                           1 	(obj:0)
d12(3,24)                                           1 	(obj:0)
d12(3,27)                                           1 	(obj:0)
d12(3,30)                                           1 	(obj:0)
d12(3,33)                                           1 	(obj:0)
d12(3,36)                                           1 	(obj:0)
d12(3,39)                                           1 	(obj:0)
d12(4,42)                                           1 	(obj:0)
d12(4,45)                                           1 	(obj:0)
d12(4,48)                                           1 	(obj:0)
d12(4,51)                                           1 	(obj:0)
d12(4,54)                                           1 	(obj:0)
d12(4,57)                                           1 	(obj:0)
d12(4,60)                                           1 	(obj:0)
d12(4,63)                                           1 	(obj:0)
d12(4,66)                                           1 	(obj:0)
d12(4,69)                                           1 	(obj:0)
d12(4,72)                                           1 	(obj:0)
d12(4,75)                                           1 	(obj:0)
d12(4,78)                                           1 	(obj:0)
d12(4,81)                                           1 	(obj:0)
d12(4,84)                                           1 	(obj:0)
d12(4,87)                                           1 	(obj:0)
d12(4,90)                                           1 	(obj:0)
d12(4,93)                                           1 	(obj:0)
d12(4,96)                                           1 	(obj:0)
d12(4,99)                                           1 	(obj:0)
d12(4,102)                                          1 	(obj:0)
d12(4,105)                                          1 	(obj:0)
d12(4,108)                                          1 	(obj:0)
d12(4,111)                                          1 	(obj:0)
d12(4,114)                                          1 	(obj:0)
d12(4,117)                                          1 	(obj:0)
d12(4,120)                                          1 	(obj:0)
d21(3,13)                                           1 	(obj:0)
d21(3,14)                                           1 	(obj:0)
d21(3,16)                                           1 	(obj:0)
d21(3,22)                                           1 	(obj:0)
d21(3,23)                                           1 	(obj:0)
d21(3,25)                                           1 	(obj:0)
d21(4,40)                                           1 	(obj:0)
d21(4,41)                                           1 	(obj:0)
d21(4,42)                                           1 	(obj:0)
d21(4,43)                                           1 	(obj:0)
d21(4,44)                                           1 	(obj:0)
d21(4,45)                                           1 	(obj:0)
d21(4,46)                                           1 	(obj:0)
d21(4,47)                                           1 	(obj:0)
d21(4,49)                                           1 	(obj:0)
d21(4,50)                                           1 	(obj:0)
d21(4,51)                                           1 	(obj:0)
d21(4,52)                                           1 	(obj:0)
d21(4,53)                                           1 	(obj:0)
d21(4,55)                                           1 	(obj:0)
d21(4,58)                                           1 	(obj:0)
d21(4,59)                                           1 	(obj:0)
d21(4,61)                                           1 	(obj:0)
d21(4,67)                                           1 	(obj:0)
d21(4,68)                                           1 	(obj:0)
d21(4,69)                                           1 	(obj:0)
d21(4,70)                                           1 	(obj:0)
d21(4,71)                                           1 	(obj:0)
d21(4,73)                                           1 	(obj:0)
d21(4,76)                                           1 	(obj:0)
d21(4,77)                                           1 	(obj:0)
d21(4,79)                                           1 	(obj:0)
d21(4,85)                                           1 	(obj:0)
d21(4,86)                                           1 	(obj:0)
d21(4,88)                                           1 	(obj:0)
d21(4,94)                                           1 	(obj:0)
d21(4,95)                                           1 	(obj:0)
d21(4,97)                                           1 	(obj:0)
d21(4,103)                                          1 	(obj:0)
y2(4,102)                            690.066580854141 	(obj:0)
y2(4,105)                            690.066580854141 	(obj:0)
y2(4,108)                            690.066580854141 	(obj:0)
y2(4,111)                            690.066580854141 	(obj:0)
y2(4,114)                            690.066580854141 	(obj:0)
y2(4,117)                            690.066580854142 	(obj:0)
y2(4,120)                            690.066580854142 	(obj:0)
STE(1,1)                             6392.47334307192 	(obj:0)
STE(0,0)                                         7875 	(obj:0)
STE(1,2)                                         7245 	(obj:0)
STE(1,3)                             8285.92163385004 	(obj:0)
STE(2,4)                             4765.70733973869 	(obj:0)
STE(2,5)                             5762.47334307192 	(obj:0)
STE(2,6)                             6675.03667692196 	(obj:0)
STE(2,7)                             5618.23399666677 	(obj:0)
STE(2,8)                             6615.00000000006 	(obj:0)
STE(2,9)                             7527.56333385005 	(obj:0)
STE(2,10)                            6659.15563051681 	(obj:0)
STE(2,11)                            7655.92163385004 	(obj:0)
STE(2,12)                            8568.48496770009 	(obj:0)
STE(3,13)                            2850.14408792719 	(obj:0)
STE(3,14)                            3846.91009126048 	(obj:0)
STE(3,15)                            4791.27059155011 	(obj:0)
STE(3,16)                            3846.91009126043 	(obj:0)
STE(3,17)                            4843.67609459372 	(obj:0)
STE(3,18)                            5788.03659488335 	(obj:0)
STE(3,19)                            4759.47342511046 	(obj:0)
STE(3,20)                            5756.23942844376 	(obj:0)
STE(3,21)                            6700.59992873339 	(obj:0)
STE(3,22)                            3702.67074485527 	(obj:0)
STE(3,23)                            4699.43674818857 	(obj:0)
STE(3,24)                            5643.79724847819 	(obj:0)
STE(3,25)                            4699.43674818857 	(obj:0)
STE(3,26)                            5696.20275152186 	(obj:0)
STE(3,27)                            6640.56325181148 	(obj:0)
STE(3,28)                            5612.00008203856 	(obj:0)
STE(3,29)                            6608.76608537185 	(obj:0)
STE(3,30)                            7553.12658566148 	(obj:0)
STE(3,31)                            4743.59237870531 	(obj:0)
STE(3,32)                             5740.3583820386 	(obj:0)
STE(3,33)                            6684.71888232823 	(obj:0)
STE(3,34)                            5740.35838203854 	(obj:0)
STE(3,35)                            6737.12438537184 	(obj:0)
STE(3,36)                            7681.48488566147 	(obj:0)
STE(3,37)                             6652.9217158886 	(obj:0)
STE(3,38)                            7649.68771922189 	(obj:0)
STE(3,39)                            8594.04821951152 	(obj:0)
STE(4,40)                            934.580836115708 	(obj:0)
STE(4,41)                              1931.346839449 	(obj:0)
STE(4,42)                            2875.70733973863 	(obj:0)
STE(4,43)                              1931.346839449 	(obj:0)
STE(4,44)                            2928.11284278229 	(obj:0)
STE(4,45)                            3872.47334307192 	(obj:0)
STE(4,46)                            2875.70733973863 	(obj:0)
STE(4,47)                            3872.47334307192 	(obj:0)
STE(4,48)                            4816.83384336155 	(obj:0)
STE(4,49)                            1931.34683944894 	(obj:0)
STE(4,50)                            2928.11284278223 	(obj:0)
STE(4,51)                            3872.47334307186 	(obj:0)
STE(4,52)                            2928.11284278223 	(obj:0)
STE(4,53)                            3924.87884611552 	(obj:0)
STE(4,54)                            4869.23934640515 	(obj:0)
STE(4,55)                            3872.47334307186 	(obj:0)
STE(4,56)                            4869.23934640515 	(obj:0)
STE(4,57)                            5813.59984669478 	(obj:0)
STE(4,58)                            2843.91017329898 	(obj:0)
STE(4,59)                            3840.67617663227 	(obj:0)
STE(4,60)                             4785.0366769219 	(obj:0)
STE(4,61)                            3840.67617663227 	(obj:0)
STE(4,62)                            4837.44217996556 	(obj:0)
STE(4,63)                            5781.80268025519 	(obj:0)
STE(4,64)                             4785.0366769219 	(obj:0)
STE(4,65)                            5781.80268025519 	(obj:0)
STE(4,66)                            6726.16318054482 	(obj:0)
STE(4,67)                            1787.10749304379 	(obj:0)
STE(4,68)                            2783.87349637708 	(obj:0)
STE(4,69)                            3728.23399666671 	(obj:0)
STE(4,70)                            2783.87349637708 	(obj:0)
STE(4,71)                            3780.63949971037 	(obj:0)
STE(4,72)                                        4725 	(obj:0)
STE(4,73)                            3728.23399666671 	(obj:0)
STE(4,74)                                        4725 	(obj:0)
STE(4,75)                            5669.36050028963 	(obj:0)
STE(4,76)                            2783.87349637708 	(obj:0)
STE(4,77)                            3780.63949971037 	(obj:0)
STE(4,78)                                        4725 	(obj:0)
STE(4,79)                            3780.63949971037 	(obj:0)
STE(4,80)                            4777.40550304366 	(obj:0)
STE(4,81)                            5721.76600333329 	(obj:0)
STE(4,82)                                        4725 	(obj:0)
STE(4,83)                            5721.76600333329 	(obj:0)
STE(4,84)                            6666.12650362292 	(obj:0)
STE(4,85)                            3696.43683022707 	(obj:0)
STE(4,86)                            4693.20283356041 	(obj:0)
STE(4,87)                            5637.56333384999 	(obj:0)
STE(4,88)                            4693.20283356041 	(obj:0)
STE(4,89)                            5689.96883689366 	(obj:0)
STE(4,90)                            6634.32933718328 	(obj:0)
STE(4,91)                            5637.56333384999 	(obj:0)
STE(4,92)                            6634.32933718329 	(obj:0)
STE(4,93)                            7578.68983747291 	(obj:0)
STE(4,94)                            2828.02912689383 	(obj:0)
STE(4,95)                            3824.79513022712 	(obj:0)
STE(4,96)                            4769.15563051675 	(obj:0)
STE(4,97)                            3824.79513022712 	(obj:0)
STE(4,98)                            4821.56113356041 	(obj:0)
STE(4,99)                            5765.92163385004 	(obj:0)
STE(4,100)                           4769.15563051675 	(obj:0)
STE(4,101)                           5765.92163385004 	(obj:0)
STE(4,102)                           6710.28213413967 	(obj:0)
STE(4,103)                           3824.79513022706 	(obj:0)
STE(4,104)                           4821.56113356035 	(obj:0)
STE(4,105)                           5765.92163384998 	(obj:0)
STE(4,106)                           4821.56113356035 	(obj:0)
STE(4,107)                           5818.32713689364 	(obj:0)
STE(4,108)                           6762.68763718327 	(obj:0)
STE(4,109)                           5765.92163384998 	(obj:0)
STE(4,110)                           6762.68763718327 	(obj:0)
STE(4,111)                            7707.0481374729 	(obj:0)
STE(4,112)                           4737.35846407711 	(obj:0)
STE(4,113)                            5734.1244674104 	(obj:0)
STE(4,114)                           6678.48496770003 	(obj:0)
STE(4,115)                            5734.1244674104 	(obj:0)
STE(4,116)                           6730.89047074369 	(obj:0)
STE(4,117)                           7675.25097103332 	(obj:0)
STE(4,118)                           6678.48496770003 	(obj:0)
STE(4,119)                           7675.25097103332 	(obj:0)
STE(4,120)                           8619.61147132295 	(obj:0)
y1(4,100)                            1157.00692663034 	(obj:0)
y1(4,101)                            259.917523630375 	(obj:0)
y1(4,103)                            1157.00692663034 	(obj:0)
y1(4,104)                            259.917523630375 	(obj:0)
y1(4,106)                            1157.00692663034 	(obj:0)
y1(4,107)                            259.917523630375 	(obj:0)
y1(4,109)                            1157.00692663034 	(obj:0)
y1(4,110)                            259.917523630375 	(obj:0)
y1(4,112)                            1157.00692663034 	(obj:0)
y1(4,113)                            259.917523630375 	(obj:0)
y1(4,115)                            1157.00692663034 	(obj:0)
y1(4,116)                            259.917523630375 	(obj:0)
y1(4,118)                            1157.00692663034 	(obj:0)
y1(4,119)                            259.917523630375 	(obj:0)
AVE(3)                                3399.3204933139 	(obj:0)
AVE(4)                               3353.21046544222 	(obj:0)
y2(4,99)                             690.066580854142 	(obj:0)
WG(3)                                 3399.3204933139 	(obj:10)
WG(4)                                3353.21046544222 	(obj:10)
BG(1)                                3245.38529411758 	(obj:10)
BG(2)                                3377.84999999995 	(obj:10)
BG(3)                                 243.75146957419 	(obj:10)
BG(4)                                289.861497445863 	(obj:10)
WB(1)                                3134.60043707458 	(obj:0)
AVE(1)                               3134.60043707458 	(obj:0)
WB(2)                                3326.45170866643 	(obj:0)
AVE(2)                               3326.45170866643 	(obj:0)
y1(1,1)                              767.273991235274 	(obj:0)
y1(2,4)                              897.089402999909 	(obj:0)
y1(2,7)                              897.089402999909 	(obj:0)
y1(2,10)                             897.089402999909 	(obj:0)
y1(3,13)                             1157.00692663034 	(obj:0)
y1(3,14)                             259.917523630382 	(obj:0)
y1(3,16)                             1157.00692663034 	(obj:0)
y1(3,17)                             259.917523630382 	(obj:0)
y1(3,19)                             1157.00692663034 	(obj:0)
y1(3,20)                             259.917523630382 	(obj:0)
y1(3,22)                             1157.00692663034 	(obj:0)
y1(3,23)                             259.917523630382 	(obj:0)
y1(3,25)                             1157.00692663034 	(obj:0)
y1(3,26)                             259.917523630382 	(obj:0)
y1(3,28)                             1157.00692663034 	(obj:0)
y1(3,29)                             259.917523630382 	(obj:0)
y1(3,31)                             1157.00692663034 	(obj:0)
y1(3,32)                             259.917523630382 	(obj:0)
y1(3,34)                             1157.00692663034 	(obj:0)
y1(3,35)                             259.917523630382 	(obj:0)
y1(3,37)                             1157.00692663034 	(obj:0)
y1(3,38)                             259.917523630382 	(obj:0)
y1(4,40)                             1157.00692663034 	(obj:0)
y1(4,41)                             259.917523630375 	(obj:0)
y1(4,43)                             1157.00692663034 	(obj:0)
y1(4,44)                             259.917523630375 	(obj:0)
y1(4,46)                             1157.00692663034 	(obj:0)
y1(4,47)                             259.917523630375 	(obj:0)
y1(4,49)                             1157.00692663034 	(obj:0)
y1(4,50)                             259.917523630375 	(obj:0)
y1(4,52)                             1157.00692663034 	(obj:0)
y1(4,53)                             259.917523630375 	(obj:0)
y1(4,55)                             1157.00692663034 	(obj:0)
y1(4,56)                             259.917523630375 	(obj:0)
y1(4,58)                             1157.00692663034 	(obj:0)
y1(4,59)                             259.917523630375 	(obj:0)
y1(4,61)                             1157.00692663034 	(obj:0)
y1(4,62)                             259.917523630375 	(obj:0)
y1(4,64)                             1157.00692663034 	(obj:0)
y1(4,65)                             259.917523630375 	(obj:0)
y1(4,67)                             1157.00692663034 	(obj:0)
y1(4,68)                             259.917523630375 	(obj:0)
y1(4,70)                             1157.00692663034 	(obj:0)
y1(4,71)                             259.917523630375 	(obj:0)
y1(4,73)                             1157.00692663034 	(obj:0)
y1(4,74)                             259.917523630375 	(obj:0)
y1(4,76)                             1157.00692663034 	(obj:0)
y1(4,77)                             259.917523630375 	(obj:0)
y1(4,79)                             1157.00692663034 	(obj:0)
y1(4,80)                             259.917523630375 	(obj:0)
y1(4,82)                             1157.00692663034 	(obj:0)
y1(4,83)                             259.917523630375 	(obj:0)
y1(4,85)                             1157.00692663034 	(obj:0)
y1(4,86)                             259.917523630331 	(obj:0)
y1(4,88)                             1157.00692663029 	(obj:0)
y1(4,89)                             259.917523630375 	(obj:0)
y1(4,91)                             1157.00692663034 	(obj:0)
y1(4,92)                             259.917523630375 	(obj:0)
y1(4,94)                             1157.00692663034 	(obj:0)
y1(4,95)                             259.917523630375 	(obj:0)
y1(4,97)                             1157.00692663034 	(obj:0)
y1(4,98)                             259.917523630375 	(obj:0)
y2(1,3)                              1095.70698300004 	(obj:0)
y2(2,6)                              960.592983000042 	(obj:0)
y2(2,9)                              960.592983000053 	(obj:0)
y2(2,12)                             960.592983000053 	(obj:0)
y2(3,15)                             690.066580854135 	(obj:0)
y2(3,18)                             690.066580854134 	(obj:0)
y2(3,21)                             690.066580854135 	(obj:0)
y2(3,24)                             690.066580854134 	(obj:0)
y2(3,27)                             690.066580854133 	(obj:0)
y2(3,30)                             690.066580854134 	(obj:0)
y2(3,33)                             690.066580854135 	(obj:0)
y2(3,36)                             690.066580854134 	(obj:0)
y2(3,39)                             690.066580854134 	(obj:0)
y2(4,42)                             690.066580854141 	(obj:0)
y2(4,45)                             690.066580854142 	(obj:0)
y2(4,48)                             690.066580854142 	(obj:0)
y2(4,51)                             690.066580854142 	(obj:0)
y2(4,54)                             690.066580854142 	(obj:0)
y2(4,57)                             690.066580854141 	(obj:0)
y2(4,60)                             690.066580854142 	(obj:0)
y2(4,63)                             690.066580854142 	(obj:0)
y2(4,66)                             690.066580854141 	(obj:0)
y2(4,69)                             690.066580854142 	(obj:0)
y2(4,72)                             690.066580854142 	(obj:0)
y2(4,75)                             690.066580854142 	(obj:0)
y2(4,78)                             690.066580854142 	(obj:0)
y2(4,81)                             690.066580854142 	(obj:0)
y2(4,84)                             690.066580854142 	(obj:0)
y2(4,87)                             690.066580854142 	(obj:0)
y2(4,90)                             690.066580854142 	(obj:0)
y2(4,93)                             690.066580854142 	(obj:0)
y2(4,96)                             690.066580854142 	(obj:0)
